c ---- [ banner ] ------------------------------------------------------------
c
c Kissat SAT Solver
c 
c Copyright (c) 2021-2023 Armin Biere University of Freiburg
c Copyright (c) 2019-2021 Armin Biere Johannes Kepler University Linz
c 
c Version 3.1.1 unknown
c gcc (Ubuntu 9.4.0-1ubuntu1~20.04.2) 9.4.0 -W -Wall -O3 -DNDEBUG
c Mon Feb 26 18:18:52 CET 2024 Linux OptiPlex-7080 5.15.0-88-generic x86_64
c
c ---- [ parsing ] -----------------------------------------------------------
c
c opened and reading DIMACS file:
c
c   /home/oliveras/SAT-comp-2023//1aa7cd96ab1f7bf58984deccf8362ab4-rand_net50-60-10.shuffled.cnf
c
c parsed 'p cnf 6000 17901' header
c closing input after reading 258932 bytes (253 KB)
c finished parsing after 0.01 seconds
c
c ---- [ options ] -----------------------------------------------------------
c
c --seed=1                         (different from default '0')
c
c ---- [ solving ] -----------------------------------------------------------
c
c  seconds switched conflicts   irredundant variables
c         MB reductions redundant      trail    remaining
c          level restarts    binary       glue
c
c *  0.01  3 0 0 0  0   0   0 11800 6101 0% 0 6000 100%
c {  0.01  3 0 0 0  0   0   0 11800 6101 0% 0 6000 100%
c -  0.17  3 29 0 1 220 1001 646 11984 6096 70% 5 6000 100%
c }  0.17  3 29 1 1 220 1001 646 11984 6096 70% 5 6000 100%
c [  0.17  3 0 1 1 220 1001 646 11984 6096 0% 0 6000 100%
c B  0.17  3 0 1 1 220 1001 646 11984 6096 0% 0 6000 100%
c d  0.26  4 53 1 1 220 1808 1421 11962 6094 69% 12 5977 100%
c u  0.28  4 53 1 1 220 1808 1421 11962 6094 69% 12 5977 100%
c v  0.29  4 53 1 1 220 1808 1421 11962 6094 69% 12 5977 100%
c w  0.30  4 53 1 1 220 1808 1436 11962 6079 69% 12 5977 100%
c =  0.32  4 53 1 1 220 1808 1436 12106 6056 69% 12 5905 98%
c d  0.33  4 53 1 1 220 1808 1428 11925 6056 69% 12 5905 98%
c t  0.33  4 53 1 1 220 1808 1428 11862 6056 69% 12 5905 98%
c -  0.36  4 48 1 2 220 2002 1088 11868 6056 70% 12 5905 98%
c W  0.37  4 48 1 2 220 2002 1088 11868 6056 70% 12 5905 98%
c ]  0.43  4 38 2 2 221 2775 1827 11888 6056 70% 12 5905 98%
c {  0.43  4 29 2 2 221 2775 1827 11888 6056 70% 5 5905 98%
c -  0.49  4 22 2 3 247 3416 1555 11955 6055 74% 5 5905 98%
c i  0.49  4 22 2 3 247 3423 1559 11957 6055 74% 5 5904 98%
c d  0.50  4 21 2 3 248 3617 1666 11936 6049 74% 5 5887 98%
c
c  seconds  switched conflicts      irredundant variables
c         MB reductions   redundant         trail    remaining
c          level restarts        binary        glue
c
c d  0.51  4 21 2 3 248 3617 1646 11934 6049 74% 5 5886 98%
c u  0.52  4 21 2 3 248 3617 1638 11942 6049 74% 5 5886 98%
c v  0.52  4 21 2 3 248 3617 1638 11942 6049 74% 5 5886 98%
c w  0.53  4 21 2 3 248 3617 1667 11942 6020 74% 5 5886 98%
c =  0.56  4 21 2 3 248 3617 1667 12396 5984 74% 5 5659 94%
c d  0.56  4 21 2 3 248 3617 1632 11872 5984 74% 5 5659 94%
c t  0.57  4 21 2 3 248 3617 1632 11791 5984 74% 5 5659 94%
c }  0.58  4 20 3 3 251 3775 1771 11805 5984 73% 5 5659 94%
c [  0.58  4 38 3 3 251 3775 1771 11805 5984 70% 12 5659 94%
c I  0.63  4 33 3 3 251 4261 2228 11821 5984 70% 11 5659 94%
c ]  0.67  4 31 4 3 252 4893 2840 11833 5984 72% 11 5659 94%
c {  0.67  4 20 4 3 252 4893 2840 11833 5984 73% 5 5659 94%
c -  0.72  4 21 4 4 332 5148 2144 11839 5984 73% 5 5659 94%
c i  0.81  4 19 4 4 381 6078 2970 11909 5981 73% 5 5658 94%
c i  0.96  4 19 4 4 628 7068 3904 11953 5979 75% 5 5641 94%
c -  0.97  4 19 4 5 628 7148 3006 11890 5979 75% 5 5641 94%
c }  0.98  4 19 5 5 650 7245 3097 11894 5979 75% 5 5641 94%
c [  0.98  4 31 5 5 650 7245 3097 11894 5979 72% 11 5641 94%
c d  0.99  4 30 5 5 650 7374 3204 11872 5946 73% 11 5622 94%
c d  0.99  4 30 5 5 650 7374 3168 11852 5946 73% 11 5612 94%
c
c  seconds  switched conflicts      irredundant  variables
c         MB reductions   redundant         trail     remaining
c          level restarts        binary         glue
c
c u  1.01  4 30 5 5 650 7374 3160 11860 5946 73% 11 5612 94%
c v  1.02  4 30 5 5 650 7374 3154 11866 5946 73% 11 5612 94%
c w  1.03  5 30 5 5 650 7374 3190 11868 5908 73% 11 5612 94%
c =  1.07  5 30 5 5 650 7374 3190 12220 5882 73% 11 5436 91%
c d  1.07  5 30 5 5 650 7374 3111 11813 5882 73% 11 5435 91%
c t  1.08  5 30 5 5 650 7374 3111 11645 5882 73% 11 5435 91%
c B  1.14  5 32 5 5 650 8034 3749 11657 5881 72% 11 5435 91%
c 2  1.24  4 29 5 5 651 9045 4749 10917 5881 74% 12 5435 91%
c s  1.24  4 29 5 5 651 9045 4749 10918 5529 74% 12 5435 91%
c e  1.28  5 29 5 5 651 9045 4749 5180 7046 74% 12 2356 39%
c 2  1.28  5 29 5 5 651 9045 4749 5142 7046 74% 12 2356 39%
c s  1.28  5 29 5 5 651 9045 4749 5155 6925 74% 12 2356 39%
c e  1.29  5 29 5 5 651 9045 4749 5119 6958 74% 12 2342 39%
c ^  1.29  5 29 5 5 651 9045 4749 5119 6958 74% 12 2342 39%
c -  1.31  4 29 5 6 652 9384 667 5126 6958 74% 12 2342 39%
c -  1.43  4 27 5 7 653 11835 1375 5132 6957 77% 13 2342 39%
c d  1.50  4 28 5 7 654 13191 2726 5130 6956 77% 14 2341 39%
c u  1.51  5 28 5 7 654 13191 2705 5151 6956 77% 14 2341 39%
c v  1.52  5 28 5 7 654 13191 2704 5152 6956 77% 14 2341 39%
c =  1.55  5 28 5 7 654 13191 2704 5172 6948 77% 14 2331 39%
c
c  seconds  switched  conflicts     irredundant  variables
c         MB reductions    redundant        trail     remaining
c          level restarts         binary        glue
c
c d  1.55  5 28 5 7 654 13191 2690 5147 6948 77% 14 2331 39%
c t  1.55  5 28 5 7 654 13191 2690 5031 6948 77% 14 2331 39%
c W  1.58  5 28 5 7 655 13564 3063 5031 6948 78% 14 2331 39%
c ]  1.58  5 28 6 7 655 13625 3124 5031 6948 77% 14 2331 39%
c {  1.58  5 19 6 7 655 13625 3124 5031 6948 75% 5 2331 39%
c -  1.64  4 18 6 8 730 14480 2132 5055 6948 76% 5 2331 39%
c i  1.78  4 15 6 8 876 17005 4566 5122 6947 77% 5 2330 39%
c -  1.80  4 15 6 9 882 17309 3896 5133 6947 77% 5 2330 39%
c 2  1.81  4 15 6 9 895 17377 3964 5124 6947 77% 5 2330 39%
c s  1.81  4 15 6 9 895 17377 3964 5125 6878 77% 5 2330 39%
c e  1.83  4 15 6 9 895 17377 3964 4840 7294 77% 5 2182 36%
c 2  1.83  4 15 6 9 895 17377 3964 4832 7294 77% 5 2182 36%
c s  1.83  4 15 6 9 895 17377 3964 4835 7264 77% 5 2182 36%
c ^  1.83  4 15 6 9 895 17377 3964 4835 7264 77% 5 2182 36%
c }  1.85  4 15 7 9 904 17694 2900 4846 7264 78% 5 2182 36%
c [  1.85  4 28 7 9 904 17694 2900 4846 7264 77% 14 2182 36%
c -  1.97  5 26 7 10 906 20310 3732 4874 7263 78% 13 2182 36%
c d  1.98  5 26 7 10 906 20595 4010 4873 7263 78% 13 2181 36%
c u  1.99  5 26 7 10 906 20595 3973 4910 7263 78% 13 2181 36%
c v  2.00  5 26 7 10 906 20595 3973 4910 7263 78% 13 2181 36%
c
c  seconds  switched   conflicts     irredundant  variables
c         MB  reductions    redundant        trail     remaining
c          level  restarts         binary        glue
c
c w  2.01  4 26 7 10 906 20595 3986 4943 7217 78% 13 2181 36%
c =  2.05  5 26 7 10 906 20595 3986 4995 7196 78% 13 2155 36%
c d  2.05  5 26 7 10 906 20595 3973 4921 7196 78% 13 2155 36%
c t  2.05  5 26 7 10 906 20595 3973 4808 7196 78% 13 2155 36%
c O  2.08  5 25 7 10 906 21093 4463 4811 7196 78% 13 2155 36%
c ]  2.23  5 24 8 10 908 23240 6573 4820 7196 79% 12 2155 36%
c {  2.23  5 15 8 10 908 23240 6573 4820 7196 78% 5 2155 36%
c -  2.26  5 15 8 11 994 23472 4087 4827 7196 77% 5 2155 36%
c i  2.28  5 15 8 11 1042 23694 4283 4840 7196 77% 5 2154 36%
c i  2.44  5 16 8 11 1398 25399 5935 4880 7195 78% 5 2151 36%
c i  2.51  4 16 8 11 1467 26335 6832 4904 7195 78% 5 2150 36%
c i  2.54  4 16 8 11 1492 26694 7179 4912 7195 78% 5 2149 36%
c -  2.55  4 16 8 12 1504 26788 5150 4861 7194 78% 5 2149 36%
c i  2.68  5 17 8 12 1819 28237 6520 4916 7191 78% 6 2148 36%
c i  2.69  5 17 8 12 1831 28309 6588 4919 7191 78% 6 2147 36%
c i  2.69  5 17 8 12 1834 28347 6619 4925 7191 78% 6 2064 34%
c i  2.69  5 17 8 12 1841 28381 6651 4926 7191 78% 6 2059 34%
c i  2.73  5 17 8 12 1965 28812 7061 4940 7191 78% 6 2020 34%
c }  2.78  5 17 9 12 2097 29399 7621 4955 7189 78% 6 2020 34%
c [  2.78  5 24 9 12 2097 29399 7621 4955 7189 79% 12 2020 34%
c
c  seconds  switched    conflicts     irredundant  variables
c         MB  reductions     redundant        trail     remaining
c          level   restarts         binary        glue
c
c d  2.82  5 24 9 12 2097 30131 6749 5094 6288 79% 12 2008 33%
c d  2.82  5 24 9 12 2097 30131 6746 5008 6226 79% 12 1965 33%
c u  2.84  5 24 9 12 2097 30131 6713 5041 6226 79% 12 1965 33%
c v  2.86  5 24 9 12 2097 30131 6709 5045 6226 79% 12 1965 33%
c w  2.87  5 24 9 12 2097 30131 6743 5065 6170 79% 12 1962 33%
c =  2.92  5 24 9 12 2097 30131 6743 5175 6139 79% 12 1907 32%
c d  2.93  5 24 9 12 2097 30131 6624 5040 6133 79% 12 1907 32%
c d  2.93  5 24 9 12 2097 30131 6624 5036 6132 79% 12 1905 32%
c t  2.93  5 24 9 12 2097 30131 6624 4742 6132 79% 12 1905 32%
c i  2.93  5 24 9 12 2097 30131 6624 4742 6132 79% 12 1905 32%
c -  2.94  5 24 9 13 2097 30253 4807 4163 6132 79% 12 1905 32%
c B  2.98  5 25 9 13 2098 30854 5397 4166 6132 79% 13 1905 32%
c -  3.11  5 25 9 14 2100 33859 5141 4205 6131 77% 13 1905 32%
c 2  3.19  5 25 9 14 2101 35450 6719 4161 6131 76% 13 1905 32%
c s  3.19  5 25 9 14 2101 35450 6719 4163 5938 76% 13 1905 32%
c e  3.21  5 25 9 14 2101 35450 6719 3634 6477 76% 13 1645 27%
c 2  3.21  5 25 9 14 2101 35450 6719 3625 6477 76% 13 1645 27%
c s  3.21  5 25 9 14 2101 35450 6719 3631 6351 76% 13 1645 27%
c e  3.21  5 25 9 14 2101 35450 6719 3607 6386 76% 13 1636 27%
c ^  3.21  5 25 9 14 2101 35450 6719 3607 6386 76% 13 1636 27%
c
c  seconds  switched    conflicts     irredundant  variables
c         MB  reductions     redundant        trail     remaining
c          level   restarts         binary        glue
c
c -  3.31  5 24 9 15 2102 37601 3897 3613 6385 76% 13 1636 27%
c ]  3.44  5 24 10 15 2103 40636 6910 3621 6384 75% 13 1636 27%
c {  3.44  5 17 10 15 2103 40636 6910 3621 6384 78% 6 1636 27%
c i  3.47  5 17 10 15 2154 41079 7330 3640 6383 78% 6 1633 27%
c -  3.49  5 17 10 16 2179 41473 4709 3621 6383 78% 6 1633 27%
c d  3.50  5 17 10 16 2216 41619 4847 3626 6353 78% 6 1630 27%
c u  3.52  5 17 10 16 2216 41619 4798 3675 6353 78% 6 1630 27%
c v  3.53  5 17 10 16 2216 41619 4759 3714 6353 78% 6 1630 27%
c w  3.54  5 17 10 16 2216 41619 4810 3731 6281 78% 6 1623 27%
c =  3.58  5 17 10 16 2216 41619 4810 3771 6199 78% 6 1603 27%
c d  3.58  5 17 10 16 2216 41619 4769 3724 6184 78% 6 1603 27%
c t  3.59  5 17 10 16 2216 41619 4769 3551 6184 78% 6 1603 27%
c i  3.59  5 17 10 16 2216 41619 4769 3551 6184 78% 6 1603 27%
c -  3.83  5 18 10 17 3007 45473 6458 3590 6183 77% 6 1603 27%
c }  4.05  5 18 11 17 3585 49263 10126 3652 6182 76% 6 1603 27%
c [  4.05  5 24 11 17 3585 49263 10126 3652 6182 75% 13 1603 27%
c W  4.05  5 24 11 17 3585 49263 10126 3652 6182 75% 13 1603 27%
c -  4.07  5 24 11 18 3585 49596 8001 3653 6182 75% 13 1603 27%
c -  4.26  5 25 11 19 3588 53838 8059 3676 6181 74% 13 1603 27%
c d  4.31  5 24 11 19 3589 55015 9175 3657 6180 74% 13 1592 27%
c
c  seconds   switched    conflicts     irredundant  variables
c         MB   reductions     redundant        trail     remaining
c          level    restarts         binary        glue
c
c b  4.32  5 24 11 19 3589 55015 9175 3657 6180 74% 13 1590 26%
c u  4.33  5 24 11 19 3589 55015 9142 3687 6180 74% 13 1590 26%
c v  4.35  5 24 11 19 3589 55015 9132 3691 6180 74% 13 1590 26%
c w  4.37  5 24 11 19 3589 55015 9162 3726 6104 74% 13 1590 26%
c =  4.42  5 24 11 19 3589 55015 9162 3820 6086 74% 13 1543 26%
c d  4.42  5 24 11 19 3589 55015 9006 3683 6086 74% 13 1542 26%
c t  4.43  5 24 11 19 3589 55015 9006 3433 6086 74% 13 1542 26%
c -  4.57  5 24 11 20 3591 58196 7593 3425 6086 74% 12 1542 26%
c -  4.77  5 23 11 21 3592 62668 7795 3431 6085 74% 12 1542 26%
c ]  4.77  5 23 12 21 3593 62776 7902 3431 6085 74% 12 1542 26%
c {  4.77  5 18 12 21 3593 62776 7902 3431 6085 76% 6 1542 26%
c s  4.81  5 18 12 21 3638 63387 8500 3445 5868 76% 6 1542 26%
c e  4.82  5 18 12 21 3638 63387 8500 3154 6568 76% 6 1411 24%
c s  4.83  5 18 12 21 3638 63387 8500 3155 6471 76% 6 1411 24%
c e  4.83  5 18 12 21 3638 63387 8500 3140 6502 76% 6 1403 23%
c ^  4.83  5 18 12 21 3638 63387 8500 3140 6502 76% 6 1403 23%
c i  5.00  5 17 12 21 3955 66852 9501 3184 6502 76% 6 1402 23%
c -  5.02  5 17 12 22 3997 67250 7522 3184 6498 76% 6 1402 23%
c i  5.06  5 17 12 22 4017 68016 8277 3192 6498 76% 6 1396 23%
c d  5.19  5 17 12 22 4296 70596 9241 3226 6407 76% 6 1393 23%
c
c  seconds   switched    conflicts     irredundant variables
c         MB   reductions     redundant        trail    remaining
c          level    restarts         binary       glue
c
c d  5.19  5 17 12 22 4296 70596 9238 3220 6395 76% 6 1390 23%
c u  5.20  5 17 12 22 4296 70596 9214 3244 6395 76% 6 1390 23%
c v  5.22  5 17 12 22 4296 70596 9204 3254 6395 76% 6 1390 23%
c w  5.24  5 17 12 22 4296 70596 9242 3286 6325 76% 6 1390 23%
c =  5.29  5 17 12 22 4296 70596 9242 3398 6309 76% 6 1334 22%
c d  5.29  5 17 12 22 4296 70596 8920 3259 6302 76% 6 1332 22%
c t  5.30  5 17 12 22 4296 70596 8920 3036 6302 76% 6 1332 22%
c -  5.35  5 17 12 23 4368 71940 8341 3000 6302 76% 6 1332 22%
c i  5.41  5 16 12 23 4445 73375 9749 3014 6302 76% 6 1327 22%
c }  5.45  6 16 13 23 4544 74256 10617 3022 6302 76% 6 1327 22%
c [  5.45  6 23 13 23 4544 74256 10617 3022 6302 74% 12 1327 22%
c I  5.45  6 23 13 23 4544 74256 10617 3022 6302 74% 12 1327 22%
c -  5.56  6 24 13 24 4546 76735 8212 2988 6302 73% 12 1327 22%
c -  5.77  6 24 13 25 4549 81633 8087 3004 6302 72% 12 1327 22%
c ]  5.98  5 24 14 25 4550 86297 12696 3016 6302 72% 12 1327 22%
c {  5.98  6 16 14 25 4550 86297 12696 3016 6302 76% 6 1327 22%
c -  6.00  6 16 14 26 4556 86633 8418 3018 6302 76% 6 1327 22%
c i  6.07  5 16 14 26 4728 88130 9892 3033 6302 76% 6 1326 22%
c d  6.09  5 16 14 26 4728 88396 9981 3035 6268 76% 6 1323 22%
c d  6.09  5 16 14 26 4728 88396 9979 3022 6258 76% 6 1316 22%
c
c  seconds   switched    conflicts     irredundant variables
c         MB   reductions     redundant        trail    remaining
c          level    restarts         binary       glue
c
c u  6.11  5 16 14 26 4728 88396 9949 3052 6258 76% 6 1316 22%
c v  6.13  5 16 14 26 4728 88396 9907 3094 6258 76% 6 1316 22%
c w  6.14  6 16 14 26 4728 88396 9953 3130 6176 76% 6 1316 22%
c =  6.20  6 16 14 26 4728 88396 9953 3172 6144 76% 6 1295 22%
c d  6.20  6 16 14 26 4728 88396 9930 3106 6140 76% 6 1294 22%
c t  6.20  6 16 14 26 4728 88396 9930 2967 6140 76% 6 1294 22%
c i  6.26  6 16 14 26 4772 89584 11084 2983 6140 76% 6 1293 22%
c i  6.29  6 16 14 26 4847 90204 11696 2989 6140 76% 6 1292 22%
c i  6.35  6 16 14 26 5025 91348 12817 3000 6140 76% 6 1291 22%
c -  6.37  6 16 14 27 5025 91734 10254 2971 6140 76% 6 1291 22%
c i  6.44  5 16 14 27 5053 93335 11811 2998 6140 76% 6 1285 21%
c -  6.61  6 15 14 28 5296 96930 11815 2985 6140 75% 6 1285 21%
c i  6.65  6 15 14 28 5360 97748 12619 2991 6139 75% 6 1282 21%
c i  6.72  6 15 14 28 5513 99125 13973 3002 6138 75% 6 1281 21%
c i  6.72  6 15 14 28 5513 99215 14056 3008 6138 75% 6 1280 21%
c i  6.76  6 15 14 28 5580 100038 14856 3022 6138 75% 6 1278 21%
c }  6.81  6 15 15 28 5681 101012 15814 3029 6138 74% 6 1278 21%
c [  6.81  6 24 15 28 5681 101012 15814 3029 6138 72% 12 1278 21%
c B  6.81  6 24 15 28 5681 101012 15814 3029 6138 72% 12 1278 21%
c -  6.87  6 24 15 29 5682 102221 11915 2994 6138 71% 12 1278 21%
c
c  seconds   switched    conflicts       irredundant  variables
c         MB   reductions       redundant        trail     remaining
c          level    restarts           binary        glue
c
c 2  6.89  5 24 15 29 5682 102780 12470 2982 6138 71% 12 1278 21%
c s  6.90  5 24 15 29 5682 102780 12470 2984 5676 71% 12 1278 21%
c e  6.93  5 24 15 29 5682 102780 12470 2621 6813 71% 12 1114 19%
c 2  6.93  5 24 15 29 5682 102780 12470 2615 6813 71% 12 1114 19%
c s  6.93  5 24 15 29 5682 102780 12470 2619 6564 71% 12 1114 19%
c e  6.94  5 24 15 29 5682 102780 12470 2602 6644 71% 12 1105 18%
c ^  6.94  5 24 15 29 5682 102780 12470 2602 6644 71% 12 1105 18%
c -  7.10  6 23 15 30 5686 107607 7531 2643 6626 71% 12 1105 18%
c d  7.13  5 23 15 30 5686 108435 8338 2644 6625 71% 12 1104 18%
c u  7.15  5 23 15 30 5686 108435 8257 2725 6625 71% 12 1104 18%
c v  7.17  5 23 15 30 5686 108435 8140 2841 6625 71% 12 1103 18%
c w  7.19  6 23 15 30 5686 108435 8169 2903 6525 71% 12 1103 18%
c =  7.25  6 23 15 30 5686 108435 8169 2913 6518 71% 12 1097 18%
c d  7.25  6 23 15 30 5686 108435 8138 2894 6518 71% 12 1097 18%
c t  7.25  6 23 15 30 5686 108435 8138 2556 6518 71% 12 1097 18%
c i  7.25  6 23 15 30 5686 108435 8138 2556 6518 71% 12 1097 18%
c i  7.29  6 23 15 30 5687 109607 9294 2562 6518 71% 12 1072 18%
c -  7.41  6 23 15 31 5687 113084 6540 2482 6517 70% 12 1072 18%
c -  7.62  5 23 15 32 5692 118651 8207 2514 6517 70% 12 1072 18%
c i  7.66  6 23 15 32 5693 119708 9250 2524 6517 70% 12 1065 18%
c
c  seconds   switched    conflicts      irredundant  variables
c         MB   reductions      redundant        trail     remaining
c          level    restarts          binary        glue
c
c ]  7.67  6 23 16 32 5693 120049 9584 2524 6517 70% 12 1065 18%
c {  7.67  6 15 16 32 5693 120049 9584 2524 6517 74% 6 1065 18%
c i  7.69  5 15 16 32 5711 120300 9823 2529 6517 74% 6 1063 18%
c i  7.74  5 15 16 32 5853 121356 10846 2541 6516 74% 6 1061 18%
c i  7.74  6 15 16 32 5853 121480 10967 2542 6516 74% 6 1060 18%
c i  7.74  6 15 16 32 5853 121516 10993 2549 6515 74% 6 1059 18%
c i  7.84  6 15 16 32 6089 123856 13305 2560 6515 74% 7 1058 18%
c -  7.86  6 15 16 33 6089 124309 9134 2487 6515 74% 6 1058 18%
c i  7.86  6 15 16 33 6089 124371 9190 2492 6515 74% 6 1057 18%
c i  7.94  6 15 16 33 6205 126130 10920 2506 6515 74% 6 1056 18%
c i  7.97  6 15 16 33 6245 126922 11688 2523 6515 73% 6 1055 18%
c i  8.00  6 15 16 33 6315 127716 12464 2535 6515 73% 6 1054 18%
c i  8.03  6 15 16 33 6335 128334 13050 2549 6515 73% 6 1053 18%
c -  8.11  6 15 16 34 6519 130054 9979 2495 6515 73% 6 1053 18%
c d  8.15  5 14 16 34 6585 130855 10734 2601 5944 73% 6 1046 17%
c d  8.15  5 14 16 34 6585 130855 10722 2584 5922 73% 6 1038 17%
c b  8.15  5 14 16 34 6585 130855 10722 2584 5922 73% 6 1036 17%
c u  8.17  5 14 16 34 6585 130855 10573 2726 5922 73% 6 1036 17%
c v  8.19  6 14 16 34 6585 130855 10312 2982 5922 73% 6 1036 17%
c w  8.22  6 14 16 34 6585 130855 10373 3041 5774 73% 6 1034 17%
c
c  seconds   switched    conflicts       irredundant variables
c         MB   reductions       redundant        trail   remaining
c          level    restarts           binary       glue
c
c =  8.27  6 14 16 34 6585 130855 10373 3085 5691 73% 6 999 17%
c d  8.27  6 14 16 34 6585 130855 10225 3027 5612 73% 6 996 17%
c d  8.27  6 14 16 34 6585 130855 10221 3023 5609 73% 6 994 17%
c t  8.28  6 14 16 34 6585 130855 10221 2480 5609 73% 6 994 17%
c b  8.28  6 14 16 34 6585 130855 10221 2480 5609 73% 6 993 17%
c i  8.28  6 14 16 34 6585 130855 10221 2480 5609 73% 6 993 17%
c i  8.30  6 14 16 34 6610 131618 10960 2492 5609 73% 6 980 16%
c i  8.32  6 14 16 34 6622 131985 11310 2503 5609 73% 6 979 16%
c i  8.32  6 14 16 34 6623 132090 11407 2508 5609 73% 6 971 16%
c i  8.32  6 14 16 34 6623 132178 11490 2512 5609 73% 6 970 16%
c i  8.37  6 14 16 34 6654 133287 12574 2520 5609 72% 6 969 16%
c i  8.39  6 14 16 34 6701 133993 13259 2534 5609 72% 6 967 16%
c i  8.40  6 14 16 34 6710 134149 13405 2541 5609 72% 6 937 16%
c i  8.40  6 14 16 34 6710 134160 13410 2544 5609 72% 6 936 16%
c i  8.42  6 14 16 34 6726 134610 13840 2559 5609 72% 6 935 16%
c i  8.42  6 14 16 34 6740 134751 13970 2566 5608 72% 6 931 16%
c i  8.42  6 14 16 34 6740 134763 13979 2568 5608 72% 6 920 15%
c -  8.47  5 14 16 35 6797 135885 6886 2335 4635 72% 6 920 15%
c i  8.48  4 14 16 35 6797 136092 7085 2340 4635 72% 6 872 15%
c i  8.50  5 14 16 35 6804 136459 7439 2348 4635 72% 6 870 14%
c
c  seconds   switched    conflicts      irredundant variables
c         MB   reductions      redundant        trail   remaining
c          level    restarts          binary       glue
c
c i  8.54  5 14 16 35 6853 137603 8528 2371 4635 71% 6 867 14%
c i  8.55  5 14 16 35 6874 138027 8938 2376 4635 71% 6 866 14%
c i  8.56  5 14 16 35 6888 138133 9036 2383 4635 71% 6 860 14%
c }  8.56  5 14 17 35 6890 138388 9278 2389 4635 71% 6 860 14%
c [  8.56  5 23 17 35 6890 138388 9278 2389 4635 70% 12 860 14%
c W  8.57  5 23 17 35 6890 138388 9278 2038 4083 70% 12 860 14%
c i  8.57  5 23 17 35 6890 138465 9345 2043 4083 70% 12 782 13%
c i  8.58  5 23 17 35 6890 138542 9417 2046 4083 70% 12 781 13%
c i  8.58  5 23 17 35 6890 138543 9417 2046 4083 70% 12 770 13%
c i  8.58  5 23 17 35 6890 138559 9430 2048 4083 70% 12 507 8%
c ]  8.58  5 23 17 35 6890 138563 9430 2050 4083 70% 12 454 8%
c 0  8.58  5 14 17 35 6890 138563 9430 2050 4083 71% 6 454 8%
c
c ---- [ result ] ------------------------------------------------------------
c
s UNSATISFIABLE
c
c ---- [ profiling ] ---------------------------------------------------------
c
c           7.23   84.23 %  search
c           3.90   45.41 %  focused
c           3.33   38.82 %  stable
c           1.34   15.66 %  simplify
c           1.15   13.44 %  probe
c           0.52    6.03 %  vivify
c           0.49    5.68 %  sweep
c           0.17    1.98 %  eliminate
c           0.08    0.90 %  substitute
c           0.06    0.73 %  reduce
c           0.05    0.60 %  transitive
c           0.02    0.28 %  subsume
c           0.02    0.25 %  walking
c           0.02    0.23 %  backbone
c           0.01    0.10 %  parse
c           0.00    0.00 %  warmup
c =============================================
c           8.58  100.00 %  total
c
c ---- [ statistics ] --------------------------------------------------------
c
c conflicts:                           138563            16148.90 per second
c decisions:                           375188                2.71 per conflict
c eliminated:                            3822               64 %  variables
c jumped_reasons:                    14351614               35 %  propagations
c propagations:                      40997818          4778113    per second
c queue_decisions:                     228204               61 %  decision
c random_decisions:                     17816                5 %  decision
c random_sequences:                        79             1754    interval
c reductions:                              35             3959    interval
c rephased:                                11            12597    interval
c restarts:                              6890               20.11 interval
c score_decisions:                     129168               34 %  decision
c strengthened:                           596                0 %  checks
c substituted:                            922               15 %  variables
c subsumed:                              1732                0 %  checks
c switched:                                17             8151    interval
c vivified:                              4134               30 %  checks
c vivify_checks:                        13951             1163    per vivify
c vivify_units:                             6                0 %  variables
c walk_improved:                            4              100 %  walks
c walks:                                    4            34641    interval
c
c ---- [ resources ] ---------------------------------------------------------
c
c maximum-resident-set-size:          6729728 bytes          6 MB
c process-time:                             9s               8.58 seconds
c
c ---- [ shutting down ] -----------------------------------------------------
c
c exit 20
